objective value:                           608.736209
t_x86                                               1 	(obj:0)
t_x421                                              1 	(obj:0)
t_x819                                              1 	(obj:0)
t_x1014                                             1 	(obj:0)
t_x1340                                             1 	(obj:0)
t_x1648                                             1 	(obj:0)
t_x1819                                             1 	(obj:0)
t_x2397                                             1 	(obj:0)
t_x2617                                             1 	(obj:0)
t_x3086                                             1 	(obj:0)
t_x3257                                             1 	(obj:0)
t_x3671                                             1 	(obj:0)
t_x3810                                             1 	(obj:0)
t_x4391                                             1 	(obj:0)
t_x4717                                             1 	(obj:0)
t_x4976                                             1 	(obj:0)
t_x5316                                             1 	(obj:0)
t_x5679                                             1 	(obj:0)
t_x5818                                             1 	(obj:0)
t_x6301                                             1 	(obj:0)
t_x6514                                             1 	(obj:0)
t_x6                                               19 	(obj:0)
t_x10                                               1 	(obj:0)
t_x14                                              16 	(obj:0)
t_x18                                              18 	(obj:0)
t_x22                                              15 	(obj:0)
t_x26                                              17 	(obj:0)
t_x30                                               2 	(obj:0)
t_x34                                               6 	(obj:0)
t_x38                                               9 	(obj:0)
t_x42                                              12 	(obj:0)
t_x46                                               8 	(obj:0)
t_x50                                               7 	(obj:0)
t_x54                                              11 	(obj:0)
t_x61                                              10 	(obj:0)
t_x62                                              13 	(obj:0)
t_x67                                              14 	(obj:0)
t_x73                                               4 	(obj:0)
t_x74                                               3 	(obj:0)
t_x78                                               5 	(obj:0)
t_x1                                       608.736209 	(obj:1)
